p edge 50 123
e 1 13
e 1 49
e 2 4
e 2 25
e 2 34
e 2 38
e 2 45
e 3 9
e 3 13
e 3 29
e 3 30
e 3 40
e 3 44
e 3 45
e 3 46
e 3 49
e 4 12
e 4 14
e 4 25
e 5 10
e 5 11
e 5 20
e 5 23
e 5 24
e 5 37
e 5 45
e 6 18
e 6 31
e 7 29
e 7 31
e 7 35
e 7 40
e 7 42
e 8 25
e 8 26
e 8 38
e 9 18
e 9 36
e 9 39
e 9 40
e 9 45
e 10 20
e 10 23
e 10 25
e 10 29
e 10 30
e 10 47
e 11 26
e 11 34
e 11 37
e 11 39
e 11 42
e 12 22
e 12 35
e 12 37
e 13 20
e 13 29
e 13 42
e 13 43
e 13 50
e 14 44
e 15 22
e 15 31
e 15 33
e 15 36
e 16 17
e 16 23
e 16 45
e 17 29
e 17 30
e 17 46
e 17 48
e 18 23
e 18 40
e 19 29
e 20 21
e 20 31
e 20 49
e 20 50
e 21 31
e 21 39
e 21 44
e 21 45
e 22 43
e 22 48
e 23 35
e 23 37
e 23 50
e 24 40
e 24 50
e 25 35
e 25 36
e 25 47
e 25 50
e 26 37
e 26 40
e 26 43
e 26 47
e 27 30
e 27 41
e 30 42
e 31 38
e 31 39
e 31 41
e 32 36
e 32 41
e 33 34
e 33 41
e 33 50
e 35 49
e 36 37
e 36 38
e 37 39
e 37 41
e 37 45
e 37 50
e 38 42
e 39 49
e 40 48
e 41 50
e 43 47
e 46 49
e 46 50
